(set-logic QF_NRA)
(declare-fun s_0 () Real)
(declare-fun s_1 () Real)
(declare-fun s_2 () Real)
(declare-fun s_3 () Real)
(declare-fun s_4 () Real)
(declare-fun s_5 () Real)
(declare-fun s_6 () Real)
(declare-fun s_7 () Real)
(declare-fun s_8 () Real)
(declare-fun s_9 () Real)
(declare-fun s_10 () Real)
(declare-fun r_n_1 () Real)
(declare-fun r_n_2 () Real)
(declare-fun r_n_3 () Real)
(declare-fun r_n_4 () Real)
(declare-fun r_n_5 () Real)
(declare-fun r_n_6 () Real)
(declare-fun r_n_7 () Real)
(declare-fun r_n_8 () Real)
(declare-fun r_n_9 () Real)
(declare-fun r_n_10 () Real)
(declare-fun i_0 () Real)
(declare-fun i_1 () Real)
(declare-fun i_2 () Real)
(declare-fun i_3 () Real)
(declare-fun i_4 () Real)
(declare-fun i_5 () Real)
(declare-fun i_6 () Real)
(declare-fun i_7 () Real)
(declare-fun i_8 () Real)
(declare-fun i_9 () Real)
(declare-fun i_10 () Real)
(declare-fun scale_1 () Real)
(declare-fun scale_2 () Real)
(declare-fun scale_3 () Real)
(declare-fun scale_4 () Real)
(declare-fun scale_5 () Real)
(declare-fun scale_6 () Real)
(declare-fun scale_7 () Real)
(declare-fun scale_8 () Real)
(declare-fun scale_9 () Real)
(declare-fun scale_10 () Real)
(declare-fun r_0 () Real)
(declare-fun r_1 () Real)
(declare-fun r_2 () Real)
(declare-fun r_3 () Real)
(declare-fun r_4 () Real)
(declare-fun r_5 () Real)
(declare-fun r_6 () Real)
(declare-fun r_7 () Real)
(declare-fun r_8 () Real)
(declare-fun r_9 () Real)
(declare-fun r_10 () Real)
(declare-fun beta_0 () Real)
(declare-fun gamma () Real)
(declare-fun delta () Real)
(declare-fun n () Real)
(declare-fun s_n_1 () Real)
(declare-fun s_n_2 () Real)
(declare-fun s_n_3 () Real)
(declare-fun s_n_4 () Real)
(declare-fun s_n_5 () Real)
(declare-fun s_n_6 () Real)
(declare-fun s_n_7 () Real)
(declare-fun s_n_8 () Real)
(declare-fun s_n_9 () Real)
(declare-fun s_n_10 () Real)
(declare-fun i_n_1 () Real)
(declare-fun i_n_2 () Real)
(declare-fun i_n_3 () Real)
(declare-fun i_n_4 () Real)
(declare-fun i_n_5 () Real)
(declare-fun i_n_6 () Real)
(declare-fun i_n_7 () Real)
(declare-fun i_n_8 () Real)
(declare-fun i_n_9 () Real)
(declare-fun i_n_10 () Real)
(assert (let ((.def_0 (* n 0.1))) (let ((.def_1 (< i_9 .def_0))) (let ((.def_2 (< i_8 .def_0))) (let ((.def_3 (< i_7 .def_0))) (let ((.def_4 (< i_6 .def_0))) (let ((.def_5 (< i_5 .def_0))) (let ((.def_6 (< i_4 .def_0))) (let ((.def_7 (< i_3 .def_0))) (let ((.def_8 (< i_2 .def_0))) (let ((.def_9 (< i_1 .def_0))) (let ((.def_10 (< i_0 .def_0))) (let ((.def_11 (and .def_10 .def_9 .def_8 .def_7 .def_6 .def_5 .def_4 .def_3 .def_2 .def_1))) (let ((.def_12 (<= 0.0 i_10))) (let ((.def_13 (<= i_10 n))) (let ((.def_14 (<= 0.0 s_10))) (let ((.def_15 (<= s_10 n))) (let ((.def_16 (<= 0.0 r_10))) (let ((.def_17 (<= r_10 n))) (let ((.def_18 (* r_n_10 scale_10))) (let ((.def_19 (= r_10 .def_18))) (let ((.def_20 (* i_n_10 scale_10))) (let ((.def_21 (= i_10 .def_20))) (let ((.def_22 (* s_n_10 scale_10))) (let ((.def_23 (= s_10 .def_22))) (let ((.def_24 (and .def_23 .def_21 .def_19 .def_17 .def_16 .def_15 .def_14 .def_13 .def_12))) (let ((.def_25 (<= 0.0 scale_10))) (let ((.def_26 (<= scale_10 1.0))) (let ((.def_27 (+ s_n_10 i_n_10))) (let ((.def_28 (+ .def_27 r_n_10))) (let ((.def_29 (/ n .def_28))) (let ((.def_30 (= scale_10 .def_29))) (let ((.def_31 (and .def_30 .def_26 .def_25))) (let ((.def_32 (<= 0.0 i_n_10))) (let ((.def_33 (<= i_n_10 n))) (let ((.def_34 (<= 0.0 s_n_10))) (let ((.def_35 (<= s_n_10 n))) (let ((.def_36 (<= 0.0 r_n_10))) (let ((.def_37 (<= r_n_10 n))) (let ((.def_38 (* gamma i_9))) (let ((.def_39 (* beta_0 s_9))) (let ((.def_40 (* .def_39 i_9))) (let ((.def_41 (- .def_40 .def_38))) (let ((.def_42 (+ .def_41 i_9))) (let ((.def_43 (= i_n_10 .def_42))) (let ((.def_44 (* beta_0 (- 1.0)))) (let ((.def_45 (* .def_44 s_9))) (let ((.def_46 (* .def_45 i_9))) (let ((.def_47 (+ .def_46 s_9))) (let ((.def_48 (= s_n_10 .def_47))) (let ((.def_49 (+ .def_38 r_9))) (let ((.def_50 (= r_n_10 .def_49))) (let ((.def_51 (and .def_50 .def_48 .def_43 .def_37 .def_36 .def_35 .def_34 .def_33 .def_32))) (let ((.def_52 (and .def_51 .def_31 .def_24))) (let ((.def_53 (<= 0.0 i_9))) (let ((.def_54 (<= i_9 n))) (let ((.def_55 (<= 0.0 s_9))) (let ((.def_56 (<= s_9 n))) (let ((.def_57 (<= 0.0 r_9))) (let ((.def_58 (<= r_9 n))) (let ((.def_59 (* r_n_9 scale_9))) (let ((.def_60 (= r_9 .def_59))) (let ((.def_61 (* i_n_9 scale_9))) (let ((.def_62 (= i_9 .def_61))) (let ((.def_63 (* s_n_9 scale_9))) (let ((.def_64 (= s_9 .def_63))) (let ((.def_65 (and .def_64 .def_62 .def_60 .def_58 .def_57 .def_56 .def_55 .def_54 .def_53))) (let ((.def_66 (<= 0.0 scale_9))) (let ((.def_67 (<= scale_9 1.0))) (let ((.def_68 (+ s_n_9 i_n_9))) (let ((.def_69 (+ .def_68 r_n_9))) (let ((.def_70 (/ n .def_69))) (let ((.def_71 (= scale_9 .def_70))) (let ((.def_72 (and .def_71 .def_67 .def_66))) (let ((.def_73 (<= 0.0 i_n_9))) (let ((.def_74 (<= i_n_9 n))) (let ((.def_75 (<= 0.0 s_n_9))) (let ((.def_76 (<= s_n_9 n))) (let ((.def_77 (<= 0.0 r_n_9))) (let ((.def_78 (<= r_n_9 n))) (let ((.def_79 (* gamma i_8))) (let ((.def_80 (* beta_0 s_8))) (let ((.def_81 (* .def_80 i_8))) (let ((.def_82 (- .def_81 .def_79))) (let ((.def_83 (+ .def_82 i_8))) (let ((.def_84 (= i_n_9 .def_83))) (let ((.def_85 (* .def_44 s_8))) (let ((.def_86 (* .def_85 i_8))) (let ((.def_87 (+ .def_86 s_8))) (let ((.def_88 (= s_n_9 .def_87))) (let ((.def_89 (+ .def_79 r_8))) (let ((.def_90 (= r_n_9 .def_89))) (let ((.def_91 (and .def_90 .def_88 .def_84 .def_78 .def_77 .def_76 .def_75 .def_74 .def_73))) (let ((.def_92 (and .def_91 .def_72 .def_65))) (let ((.def_93 (<= 0.0 i_8))) (let ((.def_94 (<= i_8 n))) (let ((.def_95 (<= 0.0 s_8))) (let ((.def_96 (<= s_8 n))) (let ((.def_97 (<= 0.0 r_8))) (let ((.def_98 (<= r_8 n))) (let ((.def_99 (* r_n_8 scale_8))) (let ((.def_100 (= r_8 .def_99))) (let ((.def_101 (* i_n_8 scale_8))) (let ((.def_102 (= i_8 .def_101))) (let ((.def_103 (* s_n_8 scale_8))) (let ((.def_104 (= s_8 .def_103))) (let ((.def_105 (and .def_104 .def_102 .def_100 .def_98 .def_97 .def_96 .def_95 .def_94 .def_93))) (let ((.def_106 (<= 0.0 scale_8))) (let ((.def_107 (<= scale_8 1.0))) (let ((.def_108 (+ s_n_8 i_n_8))) (let ((.def_109 (+ .def_108 r_n_8))) (let ((.def_110 (/ n .def_109))) (let ((.def_111 (= scale_8 .def_110))) (let ((.def_112 (and .def_111 .def_107 .def_106))) (let ((.def_113 (<= 0.0 i_n_8))) (let ((.def_114 (<= i_n_8 n))) (let ((.def_115 (<= 0.0 s_n_8))) (let ((.def_116 (<= s_n_8 n))) (let ((.def_117 (<= 0.0 r_n_8))) (let ((.def_118 (<= r_n_8 n))) (let ((.def_119 (* gamma i_7))) (let ((.def_120 (* beta_0 s_7))) (let ((.def_121 (* .def_120 i_7))) (let ((.def_122 (- .def_121 .def_119))) (let ((.def_123 (+ .def_122 i_7))) (let ((.def_124 (= i_n_8 .def_123))) (let ((.def_125 (* .def_44 s_7))) (let ((.def_126 (* .def_125 i_7))) (let ((.def_127 (+ .def_126 s_7))) (let ((.def_128 (= s_n_8 .def_127))) (let ((.def_129 (+ .def_119 r_7))) (let ((.def_130 (= r_n_8 .def_129))) (let ((.def_131 (and .def_130 .def_128 .def_124 .def_118 .def_117 .def_116 .def_115 .def_114 .def_113))) (let ((.def_132 (and .def_131 .def_112 .def_105))) (let ((.def_133 (<= 0.0 i_7))) (let ((.def_134 (<= i_7 n))) (let ((.def_135 (<= 0.0 s_7))) (let ((.def_136 (<= s_7 n))) (let ((.def_137 (<= 0.0 r_7))) (let ((.def_138 (<= r_7 n))) (let ((.def_139 (* r_n_7 scale_7))) (let ((.def_140 (= r_7 .def_139))) (let ((.def_141 (* i_n_7 scale_7))) (let ((.def_142 (= i_7 .def_141))) (let ((.def_143 (* s_n_7 scale_7))) (let ((.def_144 (= s_7 .def_143))) (let ((.def_145 (and .def_144 .def_142 .def_140 .def_138 .def_137 .def_136 .def_135 .def_134 .def_133))) (let ((.def_146 (<= 0.0 scale_7))) (let ((.def_147 (<= scale_7 1.0))) (let ((.def_148 (+ s_n_7 i_n_7))) (let ((.def_149 (+ .def_148 r_n_7))) (let ((.def_150 (/ n .def_149))) (let ((.def_151 (= scale_7 .def_150))) (let ((.def_152 (and .def_151 .def_147 .def_146))) (let ((.def_153 (<= 0.0 i_n_7))) (let ((.def_154 (<= i_n_7 n))) (let ((.def_155 (<= 0.0 s_n_7))) (let ((.def_156 (<= s_n_7 n))) (let ((.def_157 (<= 0.0 r_n_7))) (let ((.def_158 (<= r_n_7 n))) (let ((.def_159 (* gamma i_6))) (let ((.def_160 (* beta_0 s_6))) (let ((.def_161 (* .def_160 i_6))) (let ((.def_162 (- .def_161 .def_159))) (let ((.def_163 (+ .def_162 i_6))) (let ((.def_164 (= i_n_7 .def_163))) (let ((.def_165 (* .def_44 s_6))) (let ((.def_166 (* .def_165 i_6))) (let ((.def_167 (+ .def_166 s_6))) (let ((.def_168 (= s_n_7 .def_167))) (let ((.def_169 (+ .def_159 r_6))) (let ((.def_170 (= r_n_7 .def_169))) (let ((.def_171 (and .def_170 .def_168 .def_164 .def_158 .def_157 .def_156 .def_155 .def_154 .def_153))) (let ((.def_172 (and .def_171 .def_152 .def_145))) (let ((.def_173 (<= 0.0 i_6))) (let ((.def_174 (<= i_6 n))) (let ((.def_175 (<= 0.0 s_6))) (let ((.def_176 (<= s_6 n))) (let ((.def_177 (<= 0.0 r_6))) (let ((.def_178 (<= r_6 n))) (let ((.def_179 (* r_n_6 scale_6))) (let ((.def_180 (= r_6 .def_179))) (let ((.def_181 (* i_n_6 scale_6))) (let ((.def_182 (= i_6 .def_181))) (let ((.def_183 (* s_n_6 scale_6))) (let ((.def_184 (= s_6 .def_183))) (let ((.def_185 (and .def_184 .def_182 .def_180 .def_178 .def_177 .def_176 .def_175 .def_174 .def_173))) (let ((.def_186 (<= 0.0 scale_6))) (let ((.def_187 (<= scale_6 1.0))) (let ((.def_188 (+ s_n_6 i_n_6))) (let ((.def_189 (+ .def_188 r_n_6))) (let ((.def_190 (/ n .def_189))) (let ((.def_191 (= scale_6 .def_190))) (let ((.def_192 (and .def_191 .def_187 .def_186))) (let ((.def_193 (<= 0.0 i_n_6))) (let ((.def_194 (<= i_n_6 n))) (let ((.def_195 (<= 0.0 s_n_6))) (let ((.def_196 (<= s_n_6 n))) (let ((.def_197 (<= 0.0 r_n_6))) (let ((.def_198 (<= r_n_6 n))) (let ((.def_199 (* gamma i_5))) (let ((.def_200 (* beta_0 s_5))) (let ((.def_201 (* .def_200 i_5))) (let ((.def_202 (- .def_201 .def_199))) (let ((.def_203 (+ .def_202 i_5))) (let ((.def_204 (= i_n_6 .def_203))) (let ((.def_205 (* .def_44 s_5))) (let ((.def_206 (* .def_205 i_5))) (let ((.def_207 (+ .def_206 s_5))) (let ((.def_208 (= s_n_6 .def_207))) (let ((.def_209 (+ .def_199 r_5))) (let ((.def_210 (= r_n_6 .def_209))) (let ((.def_211 (and .def_210 .def_208 .def_204 .def_198 .def_197 .def_196 .def_195 .def_194 .def_193))) (let ((.def_212 (and .def_211 .def_192 .def_185))) (let ((.def_213 (<= 0.0 i_5))) (let ((.def_214 (<= i_5 n))) (let ((.def_215 (<= 0.0 s_5))) (let ((.def_216 (<= s_5 n))) (let ((.def_217 (<= 0.0 r_5))) (let ((.def_218 (<= r_5 n))) (let ((.def_219 (* r_n_5 scale_5))) (let ((.def_220 (= r_5 .def_219))) (let ((.def_221 (* i_n_5 scale_5))) (let ((.def_222 (= i_5 .def_221))) (let ((.def_223 (* s_n_5 scale_5))) (let ((.def_224 (= s_5 .def_223))) (let ((.def_225 (and .def_224 .def_222 .def_220 .def_218 .def_217 .def_216 .def_215 .def_214 .def_213))) (let ((.def_226 (<= 0.0 scale_5))) (let ((.def_227 (<= scale_5 1.0))) (let ((.def_228 (+ s_n_5 i_n_5))) (let ((.def_229 (+ .def_228 r_n_5))) (let ((.def_230 (/ n .def_229))) (let ((.def_231 (= scale_5 .def_230))) (let ((.def_232 (and .def_231 .def_227 .def_226))) (let ((.def_233 (<= 0.0 i_n_5))) (let ((.def_234 (<= i_n_5 n))) (let ((.def_235 (<= 0.0 s_n_5))) (let ((.def_236 (<= s_n_5 n))) (let ((.def_237 (<= 0.0 r_n_5))) (let ((.def_238 (<= r_n_5 n))) (let ((.def_239 (* gamma i_4))) (let ((.def_240 (* beta_0 s_4))) (let ((.def_241 (* .def_240 i_4))) (let ((.def_242 (- .def_241 .def_239))) (let ((.def_243 (+ .def_242 i_4))) (let ((.def_244 (= i_n_5 .def_243))) (let ((.def_245 (* .def_44 s_4))) (let ((.def_246 (* .def_245 i_4))) (let ((.def_247 (+ .def_246 s_4))) (let ((.def_248 (= s_n_5 .def_247))) (let ((.def_249 (+ .def_239 r_4))) (let ((.def_250 (= r_n_5 .def_249))) (let ((.def_251 (and .def_250 .def_248 .def_244 .def_238 .def_237 .def_236 .def_235 .def_234 .def_233))) (let ((.def_252 (and .def_251 .def_232 .def_225))) (let ((.def_253 (<= 0.0 i_4))) (let ((.def_254 (<= i_4 n))) (let ((.def_255 (<= 0.0 s_4))) (let ((.def_256 (<= s_4 n))) (let ((.def_257 (<= 0.0 r_4))) (let ((.def_258 (<= r_4 n))) (let ((.def_259 (* r_n_4 scale_4))) (let ((.def_260 (= r_4 .def_259))) (let ((.def_261 (* i_n_4 scale_4))) (let ((.def_262 (= i_4 .def_261))) (let ((.def_263 (* s_n_4 scale_4))) (let ((.def_264 (= s_4 .def_263))) (let ((.def_265 (and .def_264 .def_262 .def_260 .def_258 .def_257 .def_256 .def_255 .def_254 .def_253))) (let ((.def_266 (<= 0.0 scale_4))) (let ((.def_267 (<= scale_4 1.0))) (let ((.def_268 (+ s_n_4 i_n_4))) (let ((.def_269 (+ .def_268 r_n_4))) (let ((.def_270 (/ n .def_269))) (let ((.def_271 (= scale_4 .def_270))) (let ((.def_272 (and .def_271 .def_267 .def_266))) (let ((.def_273 (<= 0.0 i_n_4))) (let ((.def_274 (<= i_n_4 n))) (let ((.def_275 (<= 0.0 s_n_4))) (let ((.def_276 (<= s_n_4 n))) (let ((.def_277 (<= 0.0 r_n_4))) (let ((.def_278 (<= r_n_4 n))) (let ((.def_279 (* gamma i_3))) (let ((.def_280 (* beta_0 s_3))) (let ((.def_281 (* .def_280 i_3))) (let ((.def_282 (- .def_281 .def_279))) (let ((.def_283 (+ .def_282 i_3))) (let ((.def_284 (= i_n_4 .def_283))) (let ((.def_285 (* .def_44 s_3))) (let ((.def_286 (* .def_285 i_3))) (let ((.def_287 (+ .def_286 s_3))) (let ((.def_288 (= s_n_4 .def_287))) (let ((.def_289 (+ .def_279 r_3))) (let ((.def_290 (= r_n_4 .def_289))) (let ((.def_291 (and .def_290 .def_288 .def_284 .def_278 .def_277 .def_276 .def_275 .def_274 .def_273))) (let ((.def_292 (and .def_291 .def_272 .def_265))) (let ((.def_293 (<= 0.0 i_3))) (let ((.def_294 (<= i_3 n))) (let ((.def_295 (<= 0.0 s_3))) (let ((.def_296 (<= s_3 n))) (let ((.def_297 (<= 0.0 r_3))) (let ((.def_298 (<= r_3 n))) (let ((.def_299 (* r_n_3 scale_3))) (let ((.def_300 (= r_3 .def_299))) (let ((.def_301 (* i_n_3 scale_3))) (let ((.def_302 (= i_3 .def_301))) (let ((.def_303 (* s_n_3 scale_3))) (let ((.def_304 (= s_3 .def_303))) (let ((.def_305 (and .def_304 .def_302 .def_300 .def_298 .def_297 .def_296 .def_295 .def_294 .def_293))) (let ((.def_306 (<= 0.0 scale_3))) (let ((.def_307 (<= scale_3 1.0))) (let ((.def_308 (+ s_n_3 i_n_3))) (let ((.def_309 (+ .def_308 r_n_3))) (let ((.def_310 (/ n .def_309))) (let ((.def_311 (= scale_3 .def_310))) (let ((.def_312 (and .def_311 .def_307 .def_306))) (let ((.def_313 (<= 0.0 i_n_3))) (let ((.def_314 (<= i_n_3 n))) (let ((.def_315 (<= 0.0 s_n_3))) (let ((.def_316 (<= s_n_3 n))) (let ((.def_317 (<= 0.0 r_n_3))) (let ((.def_318 (<= r_n_3 n))) (let ((.def_319 (* gamma i_2))) (let ((.def_320 (* beta_0 s_2))) (let ((.def_321 (* .def_320 i_2))) (let ((.def_322 (- .def_321 .def_319))) (let ((.def_323 (+ .def_322 i_2))) (let ((.def_324 (= i_n_3 .def_323))) (let ((.def_325 (* .def_44 s_2))) (let ((.def_326 (* .def_325 i_2))) (let ((.def_327 (+ .def_326 s_2))) (let ((.def_328 (= s_n_3 .def_327))) (let ((.def_329 (+ .def_319 r_2))) (let ((.def_330 (= r_n_3 .def_329))) (let ((.def_331 (and .def_330 .def_328 .def_324 .def_318 .def_317 .def_316 .def_315 .def_314 .def_313))) (let ((.def_332 (and .def_331 .def_312 .def_305))) (let ((.def_333 (<= 0.0 i_2))) (let ((.def_334 (<= i_2 n))) (let ((.def_335 (<= 0.0 s_2))) (let ((.def_336 (<= s_2 n))) (let ((.def_337 (<= 0.0 r_2))) (let ((.def_338 (<= r_2 n))) (let ((.def_339 (* r_n_2 scale_2))) (let ((.def_340 (= r_2 .def_339))) (let ((.def_341 (* i_n_2 scale_2))) (let ((.def_342 (= i_2 .def_341))) (let ((.def_343 (* s_n_2 scale_2))) (let ((.def_344 (= s_2 .def_343))) (let ((.def_345 (and .def_344 .def_342 .def_340 .def_338 .def_337 .def_336 .def_335 .def_334 .def_333))) (let ((.def_346 (<= 0.0 scale_2))) (let ((.def_347 (<= scale_2 1.0))) (let ((.def_348 (+ s_n_2 i_n_2))) (let ((.def_349 (+ .def_348 r_n_2))) (let ((.def_350 (/ n .def_349))) (let ((.def_351 (= scale_2 .def_350))) (let ((.def_352 (and .def_351 .def_347 .def_346))) (let ((.def_353 (<= 0.0 i_n_2))) (let ((.def_354 (<= i_n_2 n))) (let ((.def_355 (<= 0.0 s_n_2))) (let ((.def_356 (<= s_n_2 n))) (let ((.def_357 (<= 0.0 r_n_2))) (let ((.def_358 (<= r_n_2 n))) (let ((.def_359 (* gamma i_1))) (let ((.def_360 (* beta_0 s_1))) (let ((.def_361 (* .def_360 i_1))) (let ((.def_362 (- .def_361 .def_359))) (let ((.def_363 (+ .def_362 i_1))) (let ((.def_364 (= i_n_2 .def_363))) (let ((.def_365 (* .def_44 s_1))) (let ((.def_366 (* .def_365 i_1))) (let ((.def_367 (+ .def_366 s_1))) (let ((.def_368 (= s_n_2 .def_367))) (let ((.def_369 (+ .def_359 r_1))) (let ((.def_370 (= r_n_2 .def_369))) (let ((.def_371 (and .def_370 .def_368 .def_364 .def_358 .def_357 .def_356 .def_355 .def_354 .def_353))) (let ((.def_372 (and .def_371 .def_352 .def_345))) (let ((.def_373 (<= 0.0 i_1))) (let ((.def_374 (<= i_1 n))) (let ((.def_375 (<= 0.0 s_1))) (let ((.def_376 (<= s_1 n))) (let ((.def_377 (<= 0.0 r_1))) (let ((.def_378 (<= r_1 n))) (let ((.def_379 (* r_n_1 scale_1))) (let ((.def_380 (= r_1 .def_379))) (let ((.def_381 (* i_n_1 scale_1))) (let ((.def_382 (= i_1 .def_381))) (let ((.def_383 (* s_n_1 scale_1))) (let ((.def_384 (= s_1 .def_383))) (let ((.def_385 (and .def_384 .def_382 .def_380 .def_378 .def_377 .def_376 .def_375 .def_374 .def_373))) (let ((.def_386 (<= 0.0 scale_1))) (let ((.def_387 (<= scale_1 1.0))) (let ((.def_388 (+ s_n_1 i_n_1))) (let ((.def_389 (+ .def_388 r_n_1))) (let ((.def_390 (/ n .def_389))) (let ((.def_391 (= scale_1 .def_390))) (let ((.def_392 (and .def_391 .def_387 .def_386))) (let ((.def_393 (<= 0.0 i_n_1))) (let ((.def_394 (<= i_n_1 n))) (let ((.def_395 (<= 0.0 s_n_1))) (let ((.def_396 (<= s_n_1 n))) (let ((.def_397 (<= 0.0 r_n_1))) (let ((.def_398 (<= r_n_1 n))) (let ((.def_399 (* gamma i_0))) (let ((.def_400 (* beta_0 s_0))) (let ((.def_401 (* .def_400 i_0))) (let ((.def_402 (- .def_401 .def_399))) (let ((.def_403 (+ .def_402 i_0))) (let ((.def_404 (= i_n_1 .def_403))) (let ((.def_405 (* .def_44 s_0))) (let ((.def_406 (* .def_405 i_0))) (let ((.def_407 (+ .def_406 s_0))) (let ((.def_408 (= s_n_1 .def_407))) (let ((.def_409 (+ .def_399 r_0))) (let ((.def_410 (= r_n_1 .def_409))) (let ((.def_411 (and .def_410 .def_408 .def_404 .def_398 .def_397 .def_396 .def_395 .def_394 .def_393))) (let ((.def_412 (and .def_411 .def_392 .def_385))) (let ((.def_413 (and .def_412 .def_372 .def_332 .def_292 .def_252 .def_212 .def_172 .def_132 .def_92 .def_52))) (let ((.def_414 (+ s_0 i_0))) (let ((.def_415 (+ .def_414 r_0))) (let ((.def_416 (= n .def_415))) (let ((.def_417 (= r_0 1.0))) (let ((.def_418 (= i_0 1.0))) (let ((.def_419 (= s_0 1000.0))) (let ((.def_420 (and .def_419 .def_418 .def_417 .def_416))) (let ((.def_421 (= delta 0.0))) (let ((.def_422 (= gamma 0.07142857142857142))) (let ((.def_423 (and .def_422 .def_421))) (let ((.def_424 (and .def_423 .def_420 .def_413 .def_11))) .def_424))))))))))))))))))))))))))))))))))))))))))))))))))))))))))))))))))))))))))))))))))))))))))))))))))))))))))))))))))))))))))))))))))))))))))))))))))))))))))))))))))))))))))))))))))))))))))))))))))))))))))))))))))))))))))))))))))))))))))))))))))))))))))))))))))))))))))))))))))))))))))))))))))))))))))))))))))))))))))))))))))))))))))))))))))))))))))))))))))))))))))))))))))))))))))))))))))))))))))))))))))))))))))))))))))))))))))
(check-sat)
